6253.0
0 0 0 1 0 1 0 0 1 1 0 1 1 0 1 0 0 0 0 0 0 0 0 0 0 0 0 0 1 1 
29 29 29 29 29 29 29 11 11 11 11 11 11 11 11 3 3 3 3 3 3 5 5 5 5 5 5 8 8 8 9 8 9 9 29 3 3 5 3 28 29 12 3 28 14 14 14 14 29 28 29 8 8 11 3 14 29 28 12 14 12 12 28 28 14 14 14 29 11 12 